c FILE /home/rafael/Documents/HappySet/MIHS/inputs/happygen/output/graph_scale_free_k5_p0.1_v50_20241127_082438.txt
c SOURCE This is a scale-free graph formed for the happy graph colouring problem.
c DESCRIPTION It was generated using the problem generator of Rhyd Lewis
c
c GRAPH STATS
c Seed                             = 437148262
c Number of Nodes                  = 50
c Number of colours k              = 5
c Number of pre-assignments        = 5
c Number of links per new node     = 5
c Density                          = 0.191837
c 
c The degrees of nodes 1 to 50, respectively, are as follows 
c [27, 26, 24, 22, 22, 19, 17, 16, 15, 14, 13, 11, 10, 10, 9, 9, 8, 8, 8, 8, 8, 7, 7, 7, 7, 7, 
c  6, 6, 6, 6, 6, 6, 6, 6, 6, 6, 6, 5, 5, 5, 5, 5, 5, 5, 5, 5, 5, 5, 5, 5] 
c  
p edge 50 235 5
e 1 2
e 1 3
e 1 4
e 1 5
e 1 6
e 1 9
e 1 10
e 1 11
e 1 12
e 1 14
e 1 16
e 1 17
e 1 18
e 1 19
e 1 20
e 1 21
e 1 22
e 1 23
e 1 27
e 1 36
e 1 41
e 1 42
e 1 43
e 1 44
e 1 45
e 1 46
e 1 49
e 2 3
e 2 4
e 2 5
e 2 6
e 2 7
e 2 9
e 2 10
e 2 11
e 2 12
e 2 13
e 2 15
e 2 17
e 2 18
e 2 22
e 2 23
e 2 25
e 2 30
e 2 31
e 2 33
e 2 35
e 2 37
e 2 39
e 2 45
e 2 47
e 2 50
e 3 4
e 3 5
e 3 6
e 3 8
e 3 14
e 3 19
e 3 21
e 3 22
e 3 23
e 3 24
e 3 25
e 3 27
e 3 28
e 3 29
e 3 30
e 3 32
e 3 35
e 3 40
e 3 42
e 3 45
e 3 46
e 3 50
e 4 5
e 4 6
e 4 7
e 4 8
e 4 9
e 4 10
e 4 13
e 4 14
e 4 16
e 4 17
e 4 18
e 4 19
e 4 20
e 4 26
e 4 39
e 4 41
e 4 44
e 4 47
e 4 48
e 5 6
e 5 7
e 5 9
e 5 10
e 5 11
e 5 16
e 5 17
e 5 18
e 5 21
e 5 24
e 5 27
e 5 29
e 5 32
e 5 36
e 5 38
e 5 41
e 5 44
e 5 49
e 6 9
e 6 11
e 6 13
e 6 15
e 6 17
e 6 18
e 6 21
e 6 27
e 6 31
e 6 32
e 6 33
e 6 34
e 6 38
e 6 50
e 7 8
e 7 9
e 7 10
e 7 11
e 7 12
e 7 16
e 7 30
e 7 31
e 7 32
e 7 39
e 7 43
e 7 45
e 7 48
e 7 50
e 8 9
e 8 11
e 8 13
e 8 20
e 8 25
e 8 28
e 8 33
e 8 34
e 8 36
e 8 40
e 8 45
e 8 46
e 8 49
e 9 11
e 9 12
e 9 14
e 9 15
e 9 16
e 9 19
e 9 20
e 9 42
e 10 15
e 10 21
e 10 22
e 10 23
e 10 28
e 10 31
e 10 32
e 10 43
e 10 47
e 11 12
e 11 14
e 11 22
e 11 41
e 11 42
e 11 49
e 12 25
e 12 29
e 12 31
e 12 33
e 12 35
e 12 36
e 13 16
e 13 25
e 13 26
e 13 30
e 13 38
e 13 40
e 14 29
e 14 34
e 14 37
e 14 38
e 14 40
e 15 17
e 15 23
e 15 26
e 15 33
e 15 49
e 16 20
e 16 27
e 16 39
e 17 28
e 17 37
e 18 19
e 18 24
e 18 30
e 19 24
e 19 26
e 19 38
e 20 24
e 20 28
e 20 48
e 21 29
e 21 40
e 21 44
e 22 42
e 22 48
e 23 34
e 23 37
e 24 43
e 24 47
e 25 26
e 25 44
e 26 37
e 26 48
e 27 41
e 28 46
e 29 35
e 30 39
e 31 43
e 32 34
e 33 36
e 34 35
e 35 46
e 36 47
e 37 50
n 14 4
n 17 2
n 23 3
n 24 1
n 31 5
